Arquivos de Trabalho/Propagar 3.0/Sao Chico/Otimizacoes/teste.mps.txt
NAME          EX7[R=29,C=16,NZ=260,OBJ=MIN]
ROWS
 L  CON1
 L  CON2
 L  CON3
 L  CON4
 L  CON5
 L  CON6
 L  CON7
 L  CON8
 L  CON9
 L  CON10
 L  CON11
 L  CON12
 L  CON13
 L  CON14
 L  CON15
 L  CON16
 L  CON17
 L  CON18
 E  CON19
 G  CON20
 G  CON21
 G  CON22
 G  CON23
 G  CON24
 G  CON25
 G  CON26
 G  CON27
 G  CON28
 G  CON29
 N  COST
COLUMNS
    X13       CON10     -237.0370370   CON11     -316.0493827
    X13       CON12     -237.0370370   CON13     -255.0650999
    X13       CON14     -316.0493827   CON15     -237.0370370
    X13       CON16     -316.0493827   CON17     -316.0493827
    X13       CON18     -316.0493827   CON29           75000.
    X13       COST                1.
    X14       CON1      -406.9903088   CON2      -319.0773778
    X14       CON3      -287.8545880   CON4      -329.7778359
    X14       CON5      -329.7778359   CON6      -352.0403706
    X14       CON7      -287.8545880   CON8      -322.6669948
    X14       CON9      -287.8545880   CON29           75000.
    X14       COST                1.
    X15       CON10     237.03703704   CON11     316.04938272
    X15       CON12     237.03703704   CON13     255.06509989
    X15       CON14     316.04938272   CON15     237.03703704
    X15       CON16     316.04938272   CON17     316.04938272
    X15       CON18     316.04938272   CON29          -75000.
    X15       COST               -1.
    X16       CON1      406.99030882   CON2      319.07737781
    X16       CON3      287.85458805   CON4      329.77783598
    X16       CON5      329.77783598   CON6      352.04037063
    X16       CON7      287.85458805   CON8      322.66699478
    X16       CON9      287.85458805   CON29          -75000.
    X16       COST               -1.
    X8        CON1              100.   CON2              100.
    X8        CON3               100   CON4              100.
    X8        CON5              100.   CON6              100.
    X8        CON7               100   CON8              100.
    X8        CON9               100   CON19             100.
    X8        CON20     -68458.62457   CON21     -777.8113686
    X8        CON22     -703.5914975   CON23     -2169.485218
    X8        CON24     -475.4071675   CON25     -1822.881353
    X8        CON26     -4706.745561   CON27     -3328.142314
    X8        CON28     -1032.975912   CON29     55655.186816
    X2        CON10             100.   CON11     133.33333333
    X2        CON12     140.15150833   CON13     107.60558902
    X2        CON14     186.86867778   CON15     140.15150833
    X2        CON16             100.   CON17     133.33333333
    X2        CON18     186.86867778   CON19             100.
    X2        CON20     -31533.04624   CON21     -322.1897314
    X2        CON22            -100.   CON23     -894.7192329
    X2        CON24     -513.2011244   CON25     -322.1897314
    X2        CON26     -1187.449075   CON27     -839.6458787
    X2        CON28     -260.6060333   CON29     -23730.46875
    X3        CON10     200.50502778   CON11     267.34003704
    X3        CON12     140.15150833   CON13     107.60558902
    X3        CON14     267.34003704   CON15     200.50502778
    X3        CON16     186.86867778   CON17     186.86867778
    X3        CON18     267.34003704   CON19             100.
    X3        CON20     -49743.99675   CON21     -322.1897314
    X3        CON22            -100.   CON23     -894.7192329
    X3        CON24     -513.2011244   CON25     -322.1897314
    X3        CON26     -2287.450175   CON27     -1617.457247
    X3        CON28     -260.6060333   CON29     -23730.46875
    X4        CON10     200.50502778   CON11     375.46162734
    X4        CON12     140.15150833   CON13     107.60558902
    X4        CON14     375.46162734   CON15     281.59622051
    X4        CON16     375.46162734   CON17     375.46162734
    X4        CON18     267.34003704   CON19             100.
    X4        CON20     -49743.99675   CON21     -322.1897314
    X4        CON22            -100.   CON23     -894.7192329
    X4        CON24     -513.2011244   CON25     -322.1897314
    X4        CON26     -3765.415371   CON27     -1617.457247
    X4        CON28     -260.6060333   CON29     -23730.46875
    X6        CON10             100.   CON11     133.33333333
    X6        CON12     200.50502778   CON13     215.75461615
    X6        CON14     186.86867778   CON15     140.15150833
    X6        CON16             100.   CON17     133.33333333
    X6        CON18     186.86867778   CON19             100.
    X6        CON21     -777.8113686   CON22     -241.4140778
    X6        CON23     -925.7049364   CON24     -475.4071675
    X6        CON25     -777.8113686   CON28     -241.4140778
    X6        CON29     -44344.81318
    X7        CON10     281.59622051   CON11     267.34003704
    X7        CON12     281.59622051   CON13     303.01327173
    X7        CON14     267.34003704   CON15     200.50502778
    X7        CON16     186.86867778   CON17     186.86867778
    X7        CON18     375.46162734   CON19             100.
    X7        CON20     -68458.62457   CON21     -777.8113686
    X7        CON22     -565.7788487   CON23     -2169.485218
    X7        CON24     -475.4071675   CON25     -1822.881353
    X7        CON26     -1100.001100   CON27     -1822.881353
    X7        CON28     -565.7788487   CON29     -44344.81318
    X10       CON10             100.   CON11     133.33333333
    X10       CON12     200.50502778   CON13     215.75461615
    X10       CON14     186.86867778   CON15     140.15150833
    X10       CON16             100.   CON17     133.33333333
    X10       CON18     186.86867778   CON19             100.
    X10       CON20     68458.624566   CON22     324.36477092
    X10       CON23     1243.7802816   CON25     1045.0699840
    X10       CON26     2577.9662961   CON27     1822.8813527
    X10       CON28     324.36477092   CON29     -89098.80415
    X11       CON10     281.59622051   CON11     267.34003704
    X11       CON12     281.59622051   CON13     303.01327173
    X11       CON14     267.34003704   CON15     200.50502778
    X11       CON16     186.86867778   CON17     186.86867778
    X11       CON18     375.46162734   CON19             100.
    X11       CON21     1061.2427588   CON22     467.19706288
    X11       CON26     3606.7444613   CON27     1505.2609618
    X11       CON28     467.19706288   CON29     -126054.8218
    X12       CON10     114.80982089   CON11     178.69957193
    X12       CON12     127.50494279   CON13             100.
    X12       CON14     180.35246119   CON15     132.99162089
    X12       CON16     136.67329039   CON17     170.28207496
    X12       CON18     180.35246119   CON19             100.
    X12       CON20             -100   CON21            -100.
    X12       CON22     138.29186777   CON23            -100.
    X12       CON24             100.   CON25            -100.
    X12       CON26             -100   CON27            -100.
    X12       CON29     -40343.36081
    X1        CON11             100.   CON12             100.
    X1        CON13     107.60558902   CON14             100.
    X1        CON15             100.   CON17             100.
    X1        CON18             100.   CON19             100.
    X1        CON20     -12099.89110   CON21     -322.1897314
    X1        CON22            -100.   CON23     -383.4510998
    X1        CON24     -196.9260334   CON25     -322.1897314
    X1        CON26     -455.6491113   CON28            -100.
    X1        CON29     -23730.46875
    X5        CON11             100.   CON12             100.
    X5        CON13     150.81085606   CON14             100.
    X5        CON15             100.   CON17             100.
    X5        CON18             100.   CON19             100.
    X5        CON20     19433.155135   CON23     615.84560121
    X5        CON24     316.27509091   CON26     731.79996361
    X5        CON27     839.64587869   CON28     160.60603333
    X5        CON29     -44344.81318
    X9        CON11             100.   CON12             100.
    X9        CON13     150.81085606   CON14             100.
    X9        CON15             100.   CON17             100.
    X9        CON18             100.   CON19             100.
    X9        CON20     48643.995649   CON21     777.81136865
    X9        CON22     241.41407778   CON23     1541.5505376
    X9        CON24     791.68225845   CON25     777.81136865
    X9        CON26     1831.8010636   CON27     1617.4572473
    X9        CON28     402.02011111   CON29     -63441.04395
RHS
    RHS       CON19             100.   CON29             100.
ENDATA
